 ! --------------------------------------------------- CP Optimizer 22.1.1.0 --
 ! Satisfiability problem - 61000 variables, 815605 constraints
 ! Presolve      : 37500 extractables eliminated
 ! TimeLimit            = 3600
 ! Workers              = 1
 ! Initial process time : 7.30s (7.29s extraction + 0.02s propagation)
 !  . Log search space  : 627299.3 (before), 627299.3 (after)
 !  . Memory usage      : 475.5 MB (before), 475.5 MB (after)
 ! Using sequential search.
 ! ----------------------------------------------------------------------------
 !               Branches  Non-fixed            Branch decision
                     1099      60231        F          presenceOf(copy_bus_parking:45_0)
                     2244      58651        F          presenceOf(copy_trips:16_0)
                     3000      51018                   presenceOf(copy_trips:19_347)
                     4000      39330            256  = endOf(start_parking:20)
                     5000      37569                   presenceOf(copy_bus_parking:27_12)
                     6000      26651                  !presenceOf(copy_trips:3_373)
                     7000      38590                   presenceOf(copy_lane_parking:3_98)
                     8000      54307                   presenceOf(copy_lane_parking:4_213)
                     9000      38584            571  = startOf(charge:4_102)
                    10000      42785        F          presenceOf(copy_trips:27_18)
                    11000      26651                  !presenceOf(copy_bus_parking:40_46)
                    12000      26422        F          presenceOf(copy_bus_parking:49_37)
                    13000      25979                   presenceOf(copy_lane_parking:8_110)
                    14000      42811                   presenceOf(copy_trips:30_250)
                    15000      38575                   presenceOf(copy_trips:4_343)
                    16000      38572                  !presenceOf(copy_trips:30_373)
                    17000      38578                  !presenceOf(copy_bus_parking:1_1)
                    18000      50901        F          presenceOf(copy_trips:25_59)
                    19000      50337        F          presenceOf(copy_trips:15_0)
                    20000      20824                  !presenceOf(copy_trips:24_269)
 ! Time = 55.63s, Average fail depth = 411, Memory usage = 1.8 GB
 !               Branches  Non-fixed            Branch decision
                    21000      20824                  !presenceOf(copy_trips:35_269)
                    22000      20824                  !presenceOf(copy_trips:4_269)
                    23000      20824                  !presenceOf(copy_trips:32_269)
                    24000      20824            647 != startOf(charge:1_21)
                    25000      39589                   presenceOf(copy_trips:35_130)
                    26000      20830                   presenceOf(copy_bus_parking:7_148)
                    27000      26648                  !presenceOf(copy_trips:15_46)
                    28000      26648                  !presenceOf(copy_trips:26_46)
                    29000      26648                  !presenceOf(copy_trips:9_46)
                    30000      26648                  !presenceOf(copy_trips:24_46)
                    31000      20682        F          presenceOf(copy_trips:44_269)
                    32000      20682                   presenceOf(copy_lane_parking:9_238)
                    33000      20688                   presenceOf(copy_lane_parking:5_285)
                    34000      36247                   presenceOf(copy_lane_parking:2_271)
                    35000      38584                   presenceOf(copy_trips:45_225)
                    36000      37068                   presenceOf(copy_lane_parking:3_238)
                    37000      29531                   presenceOf(copy_lane_parking:3_360)
                    38000      36331                   presenceOf(copy_lane_parking:4_132)
                    39000      37311                   presenceOf(copy_lane_parking:2_308)
                    40000      40983                  !presenceOf(copy_bus_parking:42_27)
 ! Time = 98.76s, Average fail depth = 481, Memory usage = 1.8 GB
 !               Branches  Non-fixed            Branch decision
                    41000      40807        F          presenceOf(copy_trips:42_67)
                    42000      40984                  !presenceOf(copy_bus_parking:38_27)
                    43000      40720                   presenceOf(copy_lane_parking:5_284)
                    44000      20698                   presenceOf(copy_lane_parking:8_71)
                    45000      25518                  !presenceOf(copy_bus_parking:7_68)
                    46000      20486        F          presenceOf(copy_trips:30_266)
                    47000      20676        F          presenceOf(copy_trips:42_251)
                    48000      20689                   presenceOf(copy_lane_parking:1_317)
                    49000      49165                   presenceOf(copy_lane_parking:7_283)
                    50000      25892                   presenceOf(copy_lane_parking:6_76)
                    51000      38578                  !presenceOf(copy_trips:46_373)
                    52000      38578                  !presenceOf(copy_trips:12_373)
                    53000      38578                  !presenceOf(copy_trips:23_373)
                    54000      38578                  !presenceOf(copy_bus_parking:17_373)
                    55000      38590                   presenceOf(copy_lane_parking:9_138)
                    56000      53794                   presenceOf(copy_trips:40_9)
                    57000      53794                   presenceOf(copy_trips:41_9)
                    58000      53794        F         !presenceOf(copy_bus_parking:3_8)
                    59000      20697        F          presenceOf(copy_trips:33_251)
                    60000      20694        F          presenceOf(copy_trips:46_251)
 ! Time = 140.46s, Average fail depth = 483, Memory usage = 1.8 GB
 !               Branches  Non-fixed            Branch decision
                    61000      20694        F          presenceOf(copy_trips:46_251)
                    62000      20694        F          presenceOf(copy_trips:33_251)
                    63000      20694        F          presenceOf(copy_trips:33_251)
                    64000      20694                  !presenceOf(copy_trips:44_253)
                    65000      20694        F          presenceOf(copy_trips:46_251)
                    66000      20694        F          presenceOf(copy_trips:44_251)
                    67000      20694        F          presenceOf(copy_trips:4_251)
                    68000      20694        F          presenceOf(copy_trips:46_251)
                    69000      20694        F          presenceOf(copy_trips:44_251)
                    70000      20694        F          presenceOf(copy_trips:33_251)
                    71000      20694                  !presenceOf(copy_trips:18_253)
                    72000      20694                   presenceOf(copy_lane_parking:1_136)
                    73000      44714                   presenceOf(copy_trips:4_38)
                    74000      38566        F          presenceOf(copy_bus_parking:29_373)
                    75000      38563        F          presenceOf(copy_trips:18_371)
                    76000      38584                  !presenceOf(copy_trips:48_370)
                    77000      38584                   presenceOf(copy_trips:39_371)
                    78000      38584                  !presenceOf(copy_trips:37_370)
                    79000      38587        F          presenceOf(copy_trips:29_371)
                    80000      38587                   presenceOf(copy_trips:0_371)
 ! Time = 159.31s, Average fail depth = 515, Memory usage = 1.8 GB
 !               Branches  Non-fixed            Branch decision
                    81000      38587        F          presenceOf(copy_trips:36_371)
                    82000      38590        F          presenceOf(copy_trips:48_371)
                    83000      38596        F          presenceOf(copy_trips:21_371)
                    84000      38593                   presenceOf(copy_trips:32_371)
                    85000      38593        F          presenceOf(copy_trips:27_371)
                    86000      38593                  !presenceOf(copy_trips:21_370)
                    87000      38587        F          presenceOf(copy_trips:10_371)
                    88000      38587                   presenceOf(copy_bus_parking:39_173)
                    89000      26633                   presenceOf(copy_lane_parking:5_54)
                    90000      38596                   presenceOf(copy_lane_parking:3_238)
                    91000      53790                   presenceOf(copy_lane_parking:2_25)
                    92000      38575                  !presenceOf(copy_bus_parking:2_46)
                    93000      42319        F          presenceOf(copy_trips:9_109)
                    94000      48799                  !presenceOf(copy_bus_parking:32_355)
                    95000      38596                  !presenceOf(copy_bus_parking:16_373)
                    96000      38587                   presenceOf(copy_lane_parking:9_136)
                    97000      38599                  !presenceOf(copy_bus_parking:21_373)
                    98000      38599                  !presenceOf(copy_bus_parking:33_373)
                    99000      38593        F          presenceOf(copy_bus_parking:45_373)
                     100k      38596        F          presenceOf(copy_trips:0_0)
 ! Time = 192.98s, Average fail depth = 510, Memory usage = 1.8 GB
 !               Branches  Non-fixed            Branch decision
                     101k      52823                   presenceOf(copy_bus_parking:46_194)
                     102k      25612                   presenceOf(copy_trips:13_337)
                     103k      38566        F          presenceOf(copy_bus_parking:15_0)
                     104k      38584        F         !presenceOf(copy_trips:25_373)
                     105k      38584                  !presenceOf(copy_trips:41_373)
                     106k      38581        F          presenceOf(copy_bus_parking:10_371)
                     107k      38581                  !presenceOf(copy_trips:41_373)
                     108k      38581                  !presenceOf(copy_trips:31_370)
                     109k      38587                  !presenceOf(copy_trips:41_373)
                     110k      38581        F          presenceOf(copy_bus_parking:47_371)
                     111k      38581        F         !presenceOf(copy_trips:25_373)
                     112k      38581                  !presenceOf(copy_trips:5_370)
                     113k      38581                  !presenceOf(copy_trips:41_373)
                     114k      38581        F          presenceOf(copy_bus_parking:14_371)
                     115k      38581                  !presenceOf(copy_trips:41_373)
                     116k      38587        F          presenceOf(copy_bus_parking:49_371)
                     117k      38581                   presenceOf(copy_bus_parking:26_187)
                     118k      26196        F          presenceOf(copy_trips:9_56)
                     119k      20689        F          presenceOf(copy_bus_parking:42_251)
                     120k      20689        F          presenceOf(copy_trips:29_10)
 ! Time = 229.84s, Average fail depth = 505, Memory usage = 1.8 GB
 !               Branches  Non-fixed            Branch decision
                     121k      42676        F          presenceOf(copy_bus_parking:43_0)
                     122k      42373                   presenceOf(copy_lane_parking:2_242)
                     123k      20691                  !presenceOf(copy_bus_parking:43_251)
                     124k      20691        F         !presenceOf(copy_bus_parking:25_251)
                     125k      20691                  !presenceOf(copy_bus_parking:42_251)
                     126k      20691                   presenceOf(copy_bus_parking:2_251)
                     127k      20526                   presenceOf(copy_lane_parking:4_165)
                     128k      43040                   presenceOf(copy_lane_parking:8_26)
                     129k      20525                   presenceOf(copy_lane_parking:3_204)
                     130k      44578                   presenceOf(copy_lane_parking:6_353)
                     131k      38581                  !presenceOf(copy_bus_parking:26_373)
                     132k      38581                   presenceOf(copy_trips:42_370)
                     133k      38581                  !presenceOf(copy_bus_parking:49_373)
                     134k      38587                   presenceOf(copy_bus_parking:21_3)
                     135k      42396                   presenceOf(copy_trips:40_300)
                     136k      38575        F          presenceOf(copy_trips:36_67)
                     137k      46121        F          presenceOf(copy_trips:5_91)
                     138k      42342                   presenceOf(copy_trips:33_5)
                     139k      43709        F          presenceOf(copy_trips:6_60)
                     140k      21218                   presenceOf(copy_bus_parking:25_260)
 ! Time = 270.64s, Average fail depth = 503, Memory usage = 1.8 GB
 !               Branches  Non-fixed            Branch decision
                     141k      20671                   presenceOf(copy_lane_parking:5_281)
                     142k      26410                   presenceOf(copy_lane_parking:0_268)
                     143k      38593                   presenceOf(copy_lane_parking:2_220)
                     144k      42319                   presenceOf(copy_lane_parking:7_165)
                     145k      43113        F          presenceOf(copy_bus_parking:49_30)
                     146k      43121                  !presenceOf(copy_trips:19_286)
                     147k      42842                   presenceOf(copy_lane_parking:3_14)
                     148k      28896                  !presenceOf(copy_trips:25_208)
                     149k      18404        F          presenceOf(copy_trips:43_258)
                     150k       1753        F          presenceOf(copy_trips:21_368)
 *                   150k  293.30s                   -
 ! ----------------------------------------------------------------------------
 ! Search completed, 1 solution found.
 ! ----------------------------------------------------------------------------
 ! Number of branches     : 150265
 ! Number of fails        : 52660
 ! Total memory usage     : 2.0 GB (2.0 GB CP Optimizer + 0.0 GB Concert)
 ! Time spent in solve    : 293.33s (286.05s engine + 7.29s extraction)
 ! Search speed (br. / s) : 525.3
 ! ----------------------------------------------------------------------------
